c "64820.clq"
p edge 150 584
e 1 5
e 1 6
e 1 8
e 1 10
e 1 11
e 1 14
e 1 15
e 1 18
e 1 22
e 1 26
e 1 35
e 1 39
e 1 42
e 1 44
e 1 60
e 1 62
e 1 76
e 1 91
e 1 98
e 1 113
e 1 120
e 1 140
e 1 143
e 2 5
e 2 6
e 2 7
e 2 8
e 2 9
e 2 12
e 2 15
e 2 17
e 2 20
e 2 23
e 2 25
e 2 27
e 2 30
e 2 37
e 2 38
e 2 40
e 2 41
e 2 43
e 2 51
e 2 59
e 2 66
e 2 71
e 2 72
e 2 75
e 2 80
e 2 86
e 2 88
e 2 101
e 2 104
e 2 107
e 2 112
e 2 122
e 2 130
e 2 132
e 2 135
e 2 143
e 3 5
e 3 13
e 3 75
e 3 103
e 3 129
e 4 5
e 4 6
e 4 7
e 4 8
e 4 9
e 4 10
e 4 11
e 4 12
e 4 15
e 4 16
e 4 17
e 4 19
e 4 24
e 4 34
e 4 35
e 4 37
e 4 46
e 4 47
e 4 57
e 4 60
e 4 62
e 4 63
e 4 64
e 4 78
e 4 80
e 4 94
e 4 102
e 4 106
e 4 111
e 4 121
e 4 147
e 5 6
e 5 7
e 5 9
e 5 10
e 5 11
e 5 12
e 5 13
e 5 14
e 5 17
e 5 18
e 5 19
e 5 20
e 5 21
e 5 23
e 5 24
e 5 25
e 5 29
e 5 30
e 5 32
e 5 33
e 5 39
e 5 41
e 5 42
e 5 44
e 5 49
e 5 51
e 5 56
e 5 57
e 5 60
e 5 72
e 5 73
e 5 81
e 5 84
e 5 93
e 5 95
e 5 105
e 5 106
e 5 114
e 5 116
e 5 129
e 5 131
e 5 135
e 5 139
e 5 144
e 5 147
e 6 7
e 6 8
e 6 9
e 6 11
e 6 13
e 6 14
e 6 15
e 6 16
e 6 18
e 6 21
e 6 22
e 6 24
e 6 27
e 6 28
e 6 29
e 6 31
e 6 32
e 6 33
e 6 44
e 6 52
e 6 55
e 6 57
e 6 59
e 6 69
e 6 70
e 6 75
e 6 79
e 6 82
e 6 85
e 6 96
e 6 102
e 6 109
e 6 110
e 6 114
e 6 120
e 6 121
e 6 122
e 6 125
e 6 140
e 6 142
e 6 144
e 7 14
e 7 18
e 7 25
e 7 27
e 7 29
e 7 33
e 7 38
e 7 43
e 7 53
e 7 91
e 7 106
e 7 115
e 7 126
e 7 133
e 7 136
e 7 139
e 8 47
e 8 52
e 8 74
e 8 107
e 8 109
e 8 145
e 8 147
e 9 10
e 9 12
e 9 13
e 9 17
e 9 20
e 9 29
e 9 34
e 9 49
e 9 51
e 9 56
e 9 61
e 9 74
e 9 77
e 9 79
e 9 82
e 9 88
e 9 101
e 9 117
e 9 132
e 10 19
e 10 20
e 10 28
e 10 41
e 10 46
e 10 54
e 10 59
e 10 64
e 10 77
e 10 83
e 10 84
e 10 89
e 10 108
e 10 126
e 10 127
e 10 134
e 11 19
e 11 39
e 11 53
e 11 114
e 11 124
e 12 21
e 12 23
e 12 25
e 12 28
e 12 50
e 12 64
e 12 67
e 12 74
e 12 86
e 12 91
e 12 119
e 13 24
e 13 147
e 14 16
e 14 42
e 14 77
e 14 104
e 14 117
e 14 120
e 15 16
e 15 26
e 15 45
e 15 62
e 15 79
e 15 97
e 15 133
e 15 144
e 16 22
e 16 37
e 16 41
e 16 45
e 16 49
e 16 50
e 16 54
e 16 63
e 16 69
e 16 73
e 16 78
e 16 97
e 16 99
e 16 104
e 16 115
e 16 120
e 16 133
e 16 150
e 17 43
e 17 49
e 17 81
e 17 98
e 17 112
e 17 145
e 18 26
e 18 38
e 18 71
e 18 85
e 18 87
e 18 107
e 19 36
e 19 37
e 19 40
e 19 45
e 19 47
e 19 48
e 19 52
e 19 66
e 19 83
e 19 87
e 19 89
e 19 90
e 19 95
e 19 125
e 19 138
e 20 21
e 20 22
e 20 27
e 20 32
e 20 33
e 20 39
e 20 58
e 20 61
e 20 71
e 20 93
e 20 108
e 20 112
e 20 119
e 20 123
e 20 131
e 21 31
e 21 48
e 22 23
e 22 31
e 22 48
e 22 53
e 22 73
e 22 115
e 22 146
e 23 30
e 23 31
e 23 42
e 23 44
e 23 99
e 23 131
e 23 137
e 24 26
e 24 34
e 24 54
e 24 64
e 24 77
e 24 125
e 24 146
e 25 32
e 25 55
e 25 149
e 26 30
e 26 35
e 26 43
e 26 57
e 26 65
e 26 82
e 26 88
e 26 92
e 26 134
e 26 136
e 27 28
e 27 36
e 27 40
e 27 52
e 27 81
e 27 96
e 27 105
e 28 34
e 28 76
e 28 138
e 29 46
e 29 63
e 29 68
e 29 78
e 29 90
e 29 101
e 29 103
e 29 111
e 29 123
e 29 141
e 30 36
e 30 40
e 30 55
e 30 58
e 30 60
e 30 70
e 30 108
e 31 35
e 31 48
e 31 76
e 31 87
e 31 111
e 31 135
e 32 36
e 32 55
e 32 75
e 32 84
e 32 118
e 33 45
e 33 54
e 33 67
e 33 84
e 33 99
e 33 116
e 33 140
e 34 38
e 34 65
e 34 79
e 34 85
e 34 87
e 35 90
e 35 108
e 35 126
e 36 46
e 36 47
e 36 65
e 36 74
e 36 110
e 36 113
e 36 148
e 37 124
e 38 83
e 39 51
e 39 56
e 39 68
e 39 71
e 39 72
e 39 135
e 40 58
e 41 50
e 41 86
e 41 121
e 41 126
e 41 128
e 42 58
e 42 86
e 42 100
e 42 140
e 43 94
e 44 69
e 45 50
e 45 53
e 45 59
e 45 142
e 46 67
e 46 141
e 47 76
e 47 100
e 47 122
e 47 128
e 48 56
e 48 78
e 49 62
e 49 68
e 49 80
e 49 93
e 49 119
e 49 124
e 49 150
e 50 109
e 50 110
e 50 145
e 51 66
e 51 67
e 51 130
e 51 134
e 52 65
e 52 103
e 53 99
e 53 117
e 53 121
e 53 134
e 53 139
e 54 145
e 55 66
e 55 138
e 56 61
e 57 63
e 57 81
e 57 112
e 58 61
e 59 98
e 59 141
e 59 142
e 60 94
e 60 118
e 61 70
e 61 105
e 62 73
e 62 106
e 63 70
e 63 150
e 64 83
e 64 91
e 64 100
e 64 107
e 64 130
e 64 149
e 65 69
e 65 89
e 65 90
e 65 92
e 65 127
e 66 68
e 66 116
e 67 127
e 68 119
e 70 72
e 70 95
e 70 131
e 71 85
e 71 88
e 71 89
e 71 94
e 71 100
e 72 144
e 73 137
e 74 113
e 75 92
e 75 110
e 75 115
e 77 92
e 77 95
e 77 102
e 78 124
e 79 80
e 80 118
e 81 82
e 81 96
e 81 148
e 82 98
e 82 102
e 82 109
e 82 136
e 82 139
e 83 96
e 83 117
e 84 114
e 84 128
e 85 97
e 86 113
e 87 97
e 87 104
e 87 111
e 87 136
e 88 93
e 88 103
e 88 138
e 89 141
e 89 142
e 90 132
e 91 101
e 91 127
e 92 150
e 93 116
e 93 118
e 93 122
e 93 129
e 94 130
e 98 129
e 98 148
e 99 123
e 101 128
e 104 105
e 105 123
e 106 125
e 109 143
e 118 132
e 119 133
e 123 146
e 128 137
e 132 143
e 135 137
e 141 146
e 142 149
e 146 148
e 147 149
